p cnf 10 26
10 -9 -8 0
10 9 -3 0
-10 9 3 0
10 -6 -4 0
-10 -6 3 0
10 6 -1 0
10 -5 3 0
-10 -5 1 0
9 -7 -4 0
9 6 5 0
9 -6 -4 0
9 6 3 0
-9 4 2 0
-9 3 -2 0
8 -7 -6 0
-8 7 3 0
-8 7 -2 0
-8 -6 5 0
8 -6 4 0
8 -5 -4 0
-8 -5 -1 0
7 -5 1 0
7 4 -3 0
-5 -3 -1 0
5 3 1 0
4 -3 2 0
